DATASET = "thpack4";
INSTANCE = "098";

WIDTH = 233;
HEIGHT = 220;
LENGTH = 587;

NO_OF_SHAPES = 10;
size = [|
  106,55,38 |
  69,50,48 |
  106,63,57 |
  71,66,51 |
  62,41,36 |
  75,49,39 |
  90,64,53 |
  96,79,55 |
  83,75,67 |
  58,48,30 |
|];

verticality = [|
  0,1,1 |
  1,1,1 |
  1,1,1 |
  1,1,1 |
  1,1,1 |
  1,1,1 |
  1,1,1 |
  1,1,1 |
  1,1,1 |
  1,1,1 |
|];

box_count = [
  14,
  15,
  14,
  14,
  7,
  9,
  11,
  14,
  9,
  9,
];
